(set-info :origin "SVCOMP13 benchmarks generated by Arie Gurfinkel")
(set-info :status sat)
(set-logic HORN)
(declare-fun cp-rel-entry () Bool)
(declare-fun cp-rel-bb1.i.i34.i.i () Bool)
(declare-fun cp-rel-bb1.i.i (Real Real Real) Bool)
(assert |cp-rel-entry|)
(assert (forall ((?A Real) (?B Real) (?C Real) (?D Bool) )(let (($x811286 (and |cp-rel-entry| (<= ?C 1.0) (>= ?B 0.0) (<= ?B 0.0) (>= ?A 0.0) (<= ?A 0.0) (= ?D true) (>= ?C 1.0))))
(=> $x811286 (|cp-rel-bb1.i.i| ?A ?B ?C))))
)
(assert (forall ((?A Real) (?B Real) (?C Real) (?D Real) (?E Real) (?F Real) (?G Bool) (?H Bool) (?I Bool) (?J Bool) (?K Bool) (?L Bool) (?M Real) (?N Real) (?O Bool) (?P Bool) (?Q Bool) (?R Bool) (?S Bool) (?T Bool) (?U Real) (?V Real) (?W Bool) (?X Bool) (?Y Bool) (?Z Bool) (?A1 Bool) (?B1 Bool) (?C1 Bool) (?D1 Bool) (?E1 Bool) (?F1 Bool) (?G1 Bool) (?H1 Bool) (?I1 Bool) (?J1 Bool) (?K1 Real) (?L1 Real) (?M1 Real) (?N1 Bool) (?O1 Bool) (?P1 Real) (?Q1 Bool) (?R1 Bool) (?S1 Real) (?T1 Bool) (?U1 Real) (?V1 Real) (?W1 Bool) (?X1 Bool) (?Y1 Real) (?Z1 Bool) (?A2 Bool) (?B2 Bool) )(let (($x348249 (|cp-rel-bb1.i.i| ?D ?E ?F)))
(let (($x405816 (= ?R1 (or ?B2 ?A2))))
(let (($x414835 (or (not ?G) (and ?H ?I (not ?J)))))
(let (($x103674 (or (not ?G) ?I)))
(let (($x589270 (not ?K)))
(let (($x624930 (or $x589270 (and ?G ?L (<= ?M ?N) (>= ?M ?N)) (and ?H ?O ?J (<= ?M ?C) (>= ?M ?C)))))
(let (($x864764 (or $x589270 (and ?L (not ?O)) (and ?O (not ?L)))))
(let (($x306928 (or (not ?P) (and ?K ?Q (not ?R)))))
(let (($x259710 (or (not ?P) ?Q)))
(let (($x94252 (not ?S)))
(let (($x300331 (or $x94252 (and ?P ?T (<= ?U ?V) (>= ?U ?V)) (and ?K ?W ?R (<= ?U ?B) (>= ?U ?B)))))
(let (($x364524 (or $x94252 (and ?T (not ?W)) (and ?W (not ?T)))))
(let (($x484709 (or (not ?X) (and ?S ?Y ?Z))))
(let (($x851568 (or (not ?X) ?Y)))
(let (($x789186 (or (not ?A1) (and ?S ?B1 (not ?Z)))))
(let (($x359926 (or (not ?A1) ?B1)))
(let (($x254421 (or (not ?C1) (and ?X ?D1 ?E1))))
(let (($x844174 (or (not ?C1) ?D1)))
(let (($x335617 (or (not ?F1) (and ?A1 ?G1 ?H1))))
(let (($x519569 (or (not ?F1) ?G1)))
(let (($x539126 (>= ?K1 ?P1)))
(let (($x835921 (<= ?K1 ?P1)))
(let (($x278039 (and ?A1 ?Q1 (not ?H1) $x835921 $x539126 (<= ?L1 0.0) (>= ?L1 0.0))))
(let (($x351002 (>= ?K1 ?M)))
(let (($x240827 (<= ?K1 ?M)))
(let (($x348857 (not ?I1)))
(let (($x350302 (or $x348857 (and ?C1 ?J1 $x240827 $x351002 (<= ?L1 ?M1) (>= ?L1 ?M1)) (and ?X ?N1 (not ?E1) $x240827 $x351002 (<= ?L1 ?A) (>= ?L1 ?A)) (and ?F1 ?O1 $x835921 $x539126 (<= ?L1 ?A) (>= ?L1 ?A)) $x278039)))
(let (($x837190 (or $x348857 (and ?J1 (not ?N1) (not ?O1) (not ?Q1)) (and ?N1 (not ?J1) (not ?O1) (not ?Q1)) (and ?O1 (not ?J1) (not ?N1) (not ?Q1)) (and ?Q1 (not ?J1) (not ?N1) (not ?O1)))))
(let (($x387962 (= ?I1 true)))
(let (($x472403 (= ?R1 true)))
(let (($x859110 (= ?J (= ?S1 0.0))))
(let (($x889520 (= ?U1 (ite ?T1 1.0 0.0))))
(let (($x512763 (= ?R (= ?V1 0.0))))
(let (($x619048 (= ?V (ite ?W1 1.0 0.0))))
(let (($x104903 (= ?E1 (not (<= ?M 1.0)))))
(let (($x293572 (= ?X1 (not (<= ?M 0.0)))))
(let (($x490880 (= ?Y1 (+ (~ 1.0) ?M))))
(let (($x89165 (= ?P1 (ite ?X1 ?Y1 ?M))))
(let (($x850345 (= ?H1 (= ?P1 0.0))))
(let (($x541127 (= ?Z1 (= ?U 0.0))))
(let (($x354603 (= ?A2 (= ?U 0.0))))
(let (($x409244 (= ?B2 (= ?L1 0.0))))
(let (($x423454 (and (|cp-rel-bb1.i.i| ?A ?B ?C) $x409244 $x354603 (= ?M1 (ite ?Z1 1.0 ?A)) $x541127 $x850345 $x89165 $x490880 $x293572 $x104903 (= ?Z (= ?A 0.0)) $x619048 (= ?W1 (= ?B 0.0)) $x512763 (= ?N (+ ?U1 ?C)) $x889520 (= ?T1 (not (<= 2.0 ?C))) $x859110 (>= ?F ?K1) (<= ?F ?K1) (>= ?E ?U) (<= ?E ?U) (>= ?D ?L1) (<= ?D ?L1) $x472403 $x387962 $x837190 $x350302 $x519569 $x335617 $x844174 $x254421 $x359926 $x789186 $x851568 $x484709 $x364524 $x300331 $x259710 $x306928 $x864764 $x624930 $x103674 $x414835 $x405816)))
(=> $x423454 $x348249)))))))))))))))))))))))))))))))))))))))))))))
)
(assert (forall ((?A Real) (?B Real) (?C Real) (?D Bool) (?E Bool) (?F Bool) (?G Bool) (?H Bool) (?I Bool) (?J Real) (?K Real) (?L Bool) (?M Bool) (?N Bool) (?O Bool) (?P Bool) (?Q Bool) (?R Real) (?S Real) (?T Bool) (?U Bool) (?V Bool) (?W Bool) (?X Bool) (?Y Bool) (?Z Bool) (?A1 Bool) (?B1 Bool) (?C1 Bool) (?D1 Bool) (?E1 Bool) (?F1 Bool) (?G1 Bool) (?H1 Real) (?I1 Real) (?J1 Real) (?K1 Bool) (?L1 Bool) (?M1 Real) (?N1 Bool) (?O1 Bool) (?P1 Real) (?Q1 Bool) (?R1 Real) (?S1 Real) (?T1 Bool) (?U1 Bool) (?V1 Real) (?W1 Bool) (?X1 Bool) (?Y1 Bool) )(let (($x405816 (= ?O1 (or ?Y1 ?X1))))
(let (($x414835 (or (not ?D) (and ?E ?F (not ?G)))))
(let (($x103674 (or (not ?D) ?F)))
(let (($x589270 (not ?H)))
(let (($x266353 (or $x589270 (and ?D ?I (<= ?J ?K) (>= ?J ?K)) (and ?E ?L ?G (<= ?J ?C) (>= ?J ?C)))))
(let (($x864764 (or $x589270 (and ?I (not ?L)) (and ?L (not ?I)))))
(let (($x306928 (or (not ?M) (and ?H ?N (not ?O)))))
(let (($x259710 (or (not ?M) ?N)))
(let (($x94252 (not ?P)))
(let (($x105664 (or $x94252 (and ?M ?Q (<= ?R ?S) (>= ?R ?S)) (and ?H ?T ?O (<= ?R ?B) (>= ?R ?B)))))
(let (($x364524 (or $x94252 (and ?Q (not ?T)) (and ?T (not ?Q)))))
(let (($x484709 (or (not ?U) (and ?P ?V ?W))))
(let (($x851568 (or (not ?U) ?V)))
(let (($x789186 (or (not ?X) (and ?P ?Y (not ?W)))))
(let (($x359926 (or (not ?X) ?Y)))
(let (($x254421 (or (not ?Z) (and ?U ?A1 ?B1))))
(let (($x844174 (or (not ?Z) ?A1)))
(let (($x335617 (or (not ?C1) (and ?X ?D1 ?E1))))
(let (($x519569 (or (not ?C1) ?D1)))
(let (($x539126 (>= ?H1 ?M1)))
(let (($x835921 (<= ?H1 ?M1)))
(let (($x278039 (and ?X ?N1 (not ?E1) $x835921 $x539126 (<= ?I1 0.0) (>= ?I1 0.0))))
(let (($x351002 (>= ?H1 ?J)))
(let (($x240827 (<= ?H1 ?J)))
(let (($x348857 (not ?F1)))
(let (($x866386 (or $x348857 (and ?Z ?G1 $x240827 $x351002 (<= ?I1 ?J1) (>= ?I1 ?J1)) (and ?U ?K1 (not ?B1) $x240827 $x351002 (<= ?I1 ?A) (>= ?I1 ?A)) (and ?C1 ?L1 $x835921 $x539126 (<= ?I1 ?A) (>= ?I1 ?A)) $x278039)))
(let (($x837190 (or $x348857 (and ?G1 (not ?K1) (not ?L1) (not ?N1)) (and ?K1 (not ?G1) (not ?L1) (not ?N1)) (and ?L1 (not ?G1) (not ?K1) (not ?N1)) (and ?N1 (not ?G1) (not ?K1) (not ?L1)))))
(let (($x387962 (= ?F1 true)))
(let (($x859110 (= ?G (= ?P1 0.0))))
(let (($x889520 (= ?R1 (ite ?Q1 1.0 0.0))))
(let (($x512763 (= ?O (= ?S1 0.0))))
(let (($x619048 (= ?S (ite ?T1 1.0 0.0))))
(let (($x104903 (= ?B1 (not (<= ?J 1.0)))))
(let (($x293572 (= ?U1 (not (<= ?J 0.0)))))
(let (($x490880 (= ?V1 (+ (~ 1.0) ?J))))
(let (($x89165 (= ?M1 (ite ?U1 ?V1 ?J))))
(let (($x850345 (= ?E1 (= ?M1 0.0))))
(let (($x541127 (= ?W1 (= ?R 0.0))))
(let (($x354603 (= ?X1 (= ?R 0.0))))
(let (($x409244 (= ?Y1 (= ?I1 0.0))))
(let (($x348249 (|cp-rel-bb1.i.i| ?A ?B ?C)))
(let (($x215578 (and $x348249 $x409244 $x354603 (= ?J1 (ite ?W1 1.0 ?A)) $x541127 $x850345 $x89165 $x490880 $x293572 $x104903 (= ?W (= ?A 0.0)) $x619048 (= ?T1 (= ?B 0.0)) $x512763 (= ?K (+ ?R1 ?C)) $x889520 (= ?Q1 (not (<= 2.0 ?C))) $x859110 (not (= ?O1 true)) $x387962 $x837190 $x866386 $x519569 $x335617 $x844174 $x254421 $x359926 $x789186 $x851568 $x484709 $x364524 $x105664 $x259710 $x306928 $x864764 $x266353 $x103674 $x414835 $x405816)))
(=> $x215578 |cp-rel-bb1.i.i34.i.i|))))))))))))))))))))))))))))))))))))))))))))
)
(assert (not cp-rel-bb1.i.i34.i.i))
(check-sat)
